31
0 1 2 3 1 4 2 3 3 5 1 4 6 7 5 8 6 7 4 4 2 9 8 8 10 7 9 10 1 9 6 3 7 11 8 12 5 6 12 9 11 11 10 13 5 14 14 15 16 15 13 17 16 17 12 12 18 13 11 19 20 2 21 22 20 14 19 9 20 18 22 19 16 17 21 23 18 24 25 21 26 26 24 20 23 19 27 28 25 27 28 4 29 28 29 23 30 15 17 30 
